[1, 3, 2, 4, 4, 6, 7, 9, 9, 11, 10, 9, 12, 14, 14, 12, 16, 19, 19, 20, 20, 22, 22, 19, 22, 31, 32, 33, 30, 29, 27, 28, 26, 31, 33, 36, 37, 47, 40, 39, 42, 41, 43, 44, 45, 47, 46, 48, 46, 49, 47, 52, 53, 48, 49, 52, 56, 57, 59, 65, 60, 64, 62, 65, 66, 64, 68, 67, 69, 69, 70, 69, 71, 73, 76, 76, 78, 91, 92, 90, 89, 83, 84, 85, 87, 89, 84, 86, 88, 90, 92, 93, 92, 94, 93, 98, 97, 98, 99, 102, 101, 100, 98, 99, 109, 106, 107, 108, 110, 105, 111, 111, 114, 115, 116, 115, 118, 117, 113, 111, 121, 122, 123, 124, 124, 128, 129, 128, 129, 130, 131, 131, 133, 133, 135, 132, 138, 139, 140, 142, 141, 139, 144, 143, 145, 146, 142, 149, 150, 150, 151, 178, 177, 151, 157, 159, 167, 172, 173, 168, 162, 162, 163, 164, 166, 169, 170, 165, 172, 171, 170, 173, 172, 170, 175, 176, 180, 179, 179, 180, 178, 180, 181, 183, 184, 185, 188, 186, 189, 190, 191, 198, 195, 197, 195, 198, 199, 198, 197, 198, 202, 201, 201, 206, 207, 204, 205, 205, 216, 206, 218, 217, 216, 216, 214, 215, 222, 217, 220, 218, 219, 221, 223, 224, 225, 226, 227, 228, 230, 229, 231, 233, 233, 234, 237, 237, 236, 238, 239, 240, 241, 244, 243, 244, 245, 245, 247, 248, 250, 249, 251, 252, 257, 255, 253, 254, 256, 256, 262, 261, 257, 259, 263, 263, 265, 266, 267, 268, 270, 269, 273, 274, 275, 272, 271, 271, 279, 278, 273, 280]
[1, 2, 3, 3, 5, 6, 8, 8, 8, 15, 18, 18, 18, 19, 19, 25, 27, 28, 30, 30, 31, 32, 32, 38, 39, 42, 43, 44, 45, 45, 47, 47, 51, 51, 52, 55, 56, 58, 59, 61, 65, 69, 70, 75, 75, 77, 85, 87, 89, 89, 91, 91, 91, 93, 96, 97, 97, 97, 98, 98, 100, 101, 104, 107, 113, 116, 122, 123, 123, 127, 127, 128, 128, 130, 130, 131, 137, 138, 138, 143, 156, 158, 162, 163, 164, 165, 166, 167, 170, 171, 171, 171, 174, 175, 177, 177, 178, 178, 179, 179, 179, 182, 185, 187, 189, 190, 194, 194, 203, 204, 204, 205, 205, 206, 213, 214, 217, 217, 222, 223, 224, 228, 229, 230, 232, 232, 233, 236, 236, 240, 244, 244, 247, 249, 250, 252, 253, 255, 255, 258, 260, 261, 262, 262, 267, 273, 281, 284, 287, 287, 287, 290, 290, 292, 292, 294, 297, 297, 297, 298, 298, 305, 306, 308, 310, 314, 318, 321, 323, 324, 324, 325, 325, 325, 326, 326, 327, 327, 337, 340, 343, 343, 345, 351, 354, 354, 356, 363, 367, 367, 369, 370, 370, 370, 372, 375, 378, 379, 380, 388, 389, 389, 389, 391, 400, 406, 406, 407, 407, 408, 409, 409, 411, 411, 413, 416, 417, 417, 418, 419, 421, 427, 428, 428, 435, 437, 441, 444, 445, 449, 451, 451, 455, 456, 456, 457, 457, 458, 458, 458, 459, 461, 462, 463, 467, 469, 473, 473, 475, 475, 477, 479, 479, 482, 484, 484, 485, 492, 493, 494, 494, 494, 495, 495, 496, 496, 497, 498, 499, 500, 502, 504, 505, 507, 508, 509, 511, 511, 514, 517, 518, 521, 522, 522, 523, 523, 526, 527, 528, 530, 533, 537, 540, 546, 552, 553, 559, 561, 561, 564, 566, 566, 566, 567, 569, 569, 576, 576, 576, 585, 586, 588, 588, 590, 590, 593, 594, 596, 597, 599, 600, 601, 602, 605, 605, 609, 609, 610, 613, 617, 621, 621, 622, 622, 625, 626, 626, 626, 630, 635, 640, 643, 644, 645, 647, 647, 657, 658, 659, 662, 664, 665, 666, 668, 668, 668, 671, 673, 674, 680, 681, 681, 685, 685, 687, 688, 688, 692, 699, 699, 700, 703, 707, 707, 714, 719, 719, 721, 723, 724, 725, 726, 727, 727, 727, 737, 737, 737, 740, 743, 746, 747, 754, 754, 775, 775, 776, 778, 780, 781, 782, 783, 785, 786, 788, 791, 797, 798, 800, 801, 801, 802, 802, 805, 806, 807, 810, 811, 812, 813, 813, 816, 818, 822, 823, 825, 826, 829, 835, 837, 840, 840, 843, 845, 845, 845, 847, 848, 848, 850, 850, 855, 855, 855, 864, 865, 866, 872, 875, 879, 882, 882, 884, 884, 885, 885, 888, 888, 892, 893, 898, 902, 904, 905, 905, 905, 906, 907, 914, 922, 923, 925, 925, 927, 929, 929, 930, 934, 934, 934, 938, 941, 942, 943, 950, 954, 957, 964, 964, 965, 965, 966, 968, 971, 975, 975, 976, 977, 978, 978, 980, 993, 999, 1001, 1004, 1007, 1008, 1008, 1008, 1009, 1009, 1012, 1014, 1014, 1016, 1016, 1016, 1017, 1020, 1021, 1024, 1025, 1031, 1031, 1033, 1033, 1034, 1034, 1034, 1034, 1035, 1037, 1037, 1040, 1042, 1042, 1043, 1050, 1051, 1055, 1057, 1058, 1060, 1061, 1063, 1064, 1065, 1073, 1073, 1074, 1075, 1079, 1084, 1085, 1088, 1090, 1093, 1093, 1099, 1099, 1102, 1103, 1104, 1105, 1111, 1115, 1116, 1118, 1119, 1119, 1121, 1124, 1124, 1124, 1129, 1129, 1131, 1137, 1137, 1137, 1142, 1144, 1145, 1146, 1146, 1147, 1148, 1148, 1151, 1152, 1154, 1156, 1164, 1164, 1168, 1174, 1183, 1184, 1184, 1184, 1186, 1188, 1198, 1199, 1199, 1201, 1204, 1204, 1205, 1205, 1208, 1208, 1209, 1212, 1213, 1213, 1213, 1215, 1217, 1220, 1222, 1224, 1226, 1226, 1226, 1230, 1230, 1231, 1232, 1239, 1239, 1243, 1243, 1246, 1246, 1247, 1253, 1254, 1254, 1255, 1257, 1257, 1259, 1260, 1261, 1265, 1265, 1266, 1266, 1272, 1278, 1280, 1281, 1282, 1283, 1284, 1293, 1293, 1294, 1294, 1295, 1295, 1295, 1298, 1299, 1301, 1303, 1305, 1306, 1313, 1313, 1313, 1313, 1314, 1332, 1332, 1333, 1333, 1334, 1336, 1337, 1339, 1340, 1344, 1349, 1351, 1352, 1352, 1353, 1355, 1356, 1358, 1362, 1365, 1366, 1368, 1369, 1370, 1372, 1372, 1376, 1378, 1378, 1380, 1381, 1382, 1388, 1388, 1394, 1397, 1404, 1406, 1406, 1408, 1408, 1413, 1413, 1413, 1414, 1414, 1416, 1416, 1416, 1420, 1423, 1425, 1425, 1426, 1427, 1427, 1433, 1434, 1435, 1436, 1441, 1441, 1441, 1442, 1442, 1446, 1446, 1450, 1451, 1453, 1454, 1460, 1461, 1463, 1463, 1463, 1467, 1470, 1470, 1472, 1479, 1480, 1481, 1482, 1483, 1483, 1491, 1494, 1495, 1496, 1499, 1500, 1502, 1504, 1508, 1510, 1511, 1525, 1525, 1526, 1527, 1527, 1533, 1533, 1539, 1543, 1551, 1556, 1556, 1558, 1559, 1561, 1562, 1563, 1564, 1564, 1564, 1565, 1567, 1567, 1569, 1575, 1577, 1580, 1583, 1585, 1589, 1589, 1592, 1592, 1592, 1592, 1595, 1595, 1599, 1599, 1600, 1600, 1609, 1610, 1610, 1610, 1614, 1616, 1618, 1619, 1621, 1624, 1625, 1627, 1627, 1628, 1631, 1631, 1632, 1633, 1634, 1639, 1639, 1643, 1644, 1645, 1647, 1650, 1650, 1651, 1651, 1653, 1656, 1659, 1662, 1665, 1665, 1668, 1675, 1676, 1677, 1677, 1682, 1682, 1682, 1683, 1684, 1700, 1702, 1704, 1704, 1705, 1710, 1712, 1713, 1714, 1716, 1717, 1718, 1719, 1719, 1720, 1720, 1720, 1726, 1729, 1730, 1733, 1737, 1737, 1739, 1746, 1757, 1757, 1758, 1759, 1763, 1763, 1764, 1765, 1765, 1765, 1767, 1770, 1771, 1771, 1771, 1774, 1778, 1782, 1783, 1784, 1784, 1784, 1788, 1788, 1790, 1801, 1801, 1802, 1802, 1805, 1808, 1811, 1812, 1812, 1814, 1815, 1815, 1817, 1818, 1822, 1823, 1823, 1830, 1832, 1839, 1842, 1843, 1843, 1843, 1844, 1846, 1846, 1850, 1851, 1851, 1852, 1852, 1853, 1853, 1853, 1858, 1862, 1870, 1870, 1871, 1871, 1871, 1871, 1874, 1874, 1877, 1878, 1878, 1879, 1879, 1880, 1887, 1888, 1890, 1890, 1891, 1891, 1893, 1898, 1899, 1903, 1904, 1906, 1906, 1914, 1923, 1930, 1930, 1932, 1934, 1938, 1939, 1946, 1946, 1948, 1952, 1954, 1955, 1958, 1962, 1964, 1964, 1974, 1974, 1974, 1982, 1985, 1985, 1989, 1991, 1992, 1994, 1996, 1997, 1998, 1998, 1999, 1999, 1999, 2001, 2001, 2008, 2009, 2011, 2012, 2014, 2016, 2016, 2019, 2020, 2023, 2025, 2030, 2036, 2036, 2038, 2046, 2050, 2050, 2050, 2052, 2053, 2054, 2058, 2059, 2061, 2062, 2063, 2063, 2063, 2065, 2066, 2068, 2069, 2073, 2075, 2076, 2076, 2083, 2083, 2090, 2091, 2091, 2093, 2094, 2094, 2095, 2096, 2097, 2098, 2114, 2114, 2116, 2119, 2120, 2123, 2125, 2125, 2128, 2129, 2132, 2132, 2132, 2133, 2141, 2142, 2143, 2150, 2150, 2150, 2150, 2153, 2153, 2156, 2158, 2158, 2159, 2166, 2167, 2169, 2169, 2172, 2173, 2175, 2176, 2179, 2180, 2181, 2182, 2185, 2185, 2188, 2189, 2189, 2192, 2193, 2195, 2196, 2196, 2197, 2197, 2205, 2207, 2211, 2213, 2214, 2215, 2215, 2217, 2219, 2227, 2232, 2238, 2245, 2245, 2253, 2253, 2253, 2257, 2258, 2260, 2263, 2271, 2272, 2273, 2275, 2277, 2277, 2278, 2278, 2278, 2279, 2279, 2280, 2280, 2283, 2283, 2284, 2290, 2293, 2296, 2296, 2298, 2302, 2307, 2307, 2315, 2315, 2316, 2317, 2318, 2320, 2320, 2321, 2321, 2322, 2323, 2323, 2323, 2325, 2332, 2337, 2338, 2341, 2342, 2342, 2342, 2344, 2346, 2346, 2353, 2355, 2355, 2360, 2360, 2361, 2362, 2362, 2364, 2364, 2370, 2370, 2371, 2372, 2374, 2376, 2377, 2381, 2381, 2390, 2394, 2397, 2400, 2401, 2401, 2401, 2402, 2406, 2409, 2409, 2410, 2410, 2411, 2411, 2411, 2412, 2414, 2415, 2419, 2420, 2421, 2426, 2426, 2429, 2429, 2429, 2429, 2430, 2432, 2432, 2433, 2435, 2436, 2436, 2437, 2437, 2438, 2446, 2447, 2447, 2447, 2448, 2448, 2449, 2449, 2451, 2452, 2454, 2457, 2464, 2464, 2468, 2468, 2469, 2470, 2474, 2475, 2475, 2476, 2476, 2478, 2479, 2480, 2481, 2482, 2486, 2487, 2487, 2488, 2488, 2490, 2492, 2496, 2502, 2502, 2503, 2505, 2509, 2512, 2514, 2514, 2519, 2519, 2519, 2521, 2522, 2522, 2529, 2529, 2529, 2532, 2532, 2532, 2536, 2537, 2539, 2540, 2541, 2541, 2546, 2547, 2549, 2551, 2552, 2555, 2556, 2556, 2559, 2559, 2562, 2562, 2569, 2578, 2579, 2579, 2579, 2581, 2596, 2597, 2599, 2599, 2600, 2600, 2603, 2603, 2604, 2607, 2609, 2609, 2610, 2612, 2615, 2618, 2620, 2621, 2621, 2621, 2623, 2627, 2628, 2631, 2632, 2634, 2634, 2638, 2638, 2639, 2639, 2640, 2642, 2643, 2643, 2648, 2651, 2653, 2654, 2655, 2660, 2660, 2661, 2661, 2667, 2672, 2672, 2673, 2674, 2677, 2679, 2683, 2683, 2685, 2686, 2688, 2688, 2689, 2689, 2691, 2693, 2694, 2705, 2705, 2709, 2714, 2725, 2726, 2726, 2726, 2728, 2728, 2730, 2731, 2732, 2733, 2736, 2739, 2740, 2746, 2748, 2749, 2750, 2754, 2754, 2760, 2761, 2762, 2765, 2766, 2766, 2769, 2772, 2773, 2773, 2778, 2779, 2780, 2782, 2784]
